<number of tasks>
58

<cycle time>
58

<task times>
1 10
2 53
3 41
4 36
5 35
6 17
7 34
8 23
9 14
10 52
11 33
12 34
13 12
14 52
15 12
16 33
17 44
18 7
19 15
20 13
21 29
22 37
23 43
24 23
25 24
26 9
27 16
28 12
29 26
30 22
31 51
32 47
33 34
34 23
35 12
36 52
37 12
38 33
39 44
40 7
41 15
42 13
43 29
44 37
45 43
46 23
47 24
48 9
49 16
50 12
51 26
52 12
53 52
54 12
55 33
56 44
57 7
58 15

<precedence relations>
1,9
2,25
3,21
3,22
4,10
5,36
6,23
6,24
7,43
8,44
9,11
11,13
11,14
11,15
12,17
13,17
14,17
15,17
16,18
17,20
18,19
19,23
20,21
20,25
21,26
21,44
22,27
23,31
24,31
25,38
26,29
27,30
28,32
28,33
29,31
30,34
31,36
32,45
33,35
34,36
35,43
36,37
36,38
37,39
37,40
37,41
38,52
39,43
40,43
41,42
42,43
43,45
44,45
45,46
45,48
45,49
46,47
46,50
47,51
48,55
49,58
50,58
51,52
52,53
53,54
54,55
54,56
55,57
56,57
57,58

<setup times forward>
1,2:7
1,3:10
1,4:14
1,5:9
1,6:10
1,7:3
1,8:4
1,10:12
1,16:4
1,18:2
1,19:6
1,22:6
1,23:9
1,24:12
1,27:2
1,28:3
1,30:14
1,32:2
1,33:7
1,34:9
1,35:7
2,1:7
2,3:3
2,4:21
2,5:2
2,6:3
2,7:10
2,8:11
2,9:7
2,10:19
2,11:4
2,12:7
2,13:2
2,14:8
2,15:16
2,16:11
2,17:2
2,18:5
2,19:13
2,20:11
2,21:11
2,22:13
2,23:16
2,24:19
2,25:10
2,26:19
2,27:9
2,28:4
2,29:19
2,30:21
2,31:4
2,32:5
2,34:2
2,36:5
2,41:16
2,42:16
2,43:16
2,44:9
2,45:1
2,46:12
2,47:12
2,48:12
2,49:10
2,50:17
2,51:17
3,1:10
3,2:3
3,4:24
3,5:1
3,7:13
3,8:14
3,9:10
3,10:22
3,11:7
3,12:10
3,13:5
3,14:11
3,15:19
3,16:14
3,17:5
3,18:8
3,19:16
3,20:14
3,21:14
3,22:16
3,23:19
3,24:22
3,25:13
3,28:7
3,32:8
3,33:3
3,35:3
4,1:14
4,2:21
4,3:24
4,5:23
4,6:24
4,7:11
4,8:10
4,9:14
4,10:2
4,11:17
4,12:14
4,13:19
4,14:13
4,15:5
4,16:10
4,17:19
4,18:16
4,19:8
4,20:10
4,21:10
4,22:8
4,23:5
4,24:2
4,25:11
4,26:2
4,27:12
4,28:17
4,29:2
4,31:17
4,32:16
4,33:21
4,34:23
4,35:21
4,36:16
4,37:21
4,38:11
4,39:21
4,40:21
4,41:5
4,42:5
4,43:5
4,44:12
4,45:20
4,46:9
4,47:9
4,48:9
4,49:11
4,50:4
4,51:4
4,52:4
4,53:1
4,54:16
4,55:1
4,56:16
4,57:1
4,58:1
5,1:9
5,2:2
5,3:1
5,4:23
5,6:1
5,7:12
5,8:13
5,9:9
5,10:21
5,11:6
5,12:9
5,13:4
5,14:10
5,15:18
5,16:13
5,17:4
5,18:7
5,19:15
5,20:13
5,21:13
5,22:15
5,23:18
5,24:21
5,25:12
5,26:21
5,27:11
5,28:6
5,29:21
5,30:23
5,31:6
5,32:7
5,33:2
5,35:2
5,36:7
5,44:11
6,1:10
6,2:3
6,4:24
6,5:1
6,7:13
6,8:14
6,9:10
6,10:22
6,11:7
6,12:10
6,13:5
6,14:11
6,15:19
6,16:14
6,17:5
6,18:8
6,19:16
6,20:14
6,21:14
6,22:16
6,23:19
6,24:22
6,25:13
6,26:22
6,27:12
6,28:7
6,29:22
6,30:24
6,32:8
6,33:3
6,34:1
6,35:3
6,44:12
7,1:3
7,2:10
7,3:13
7,4:11
7,5:12
7,6:13
7,8:1
7,9:3
7,10:9
7,11:6
7,12:3
7,13:8
7,14:2
7,15:6
7,16:1
7,17:8
7,18:5
7,19:3
7,20:1
7,21:1
7,22:3
7,23:6
7,24:9
7,26:9
7,27:1
7,28:6
7,29:9
7,30:11
7,31:6
7,32:5
7,33:10
7,34:12
7,35:10
7,36:5
7,37:10
7,39:10
7,40:10
7,41:6
7,42:6
7,43:6
7,44:1
8,1:4
8,2:11
8,3:14
8,4:10
8,5:13
8,6:14
8,7:1
8,9:4
8,10:8
8,11:7
8,12:4
8,13:9
8,14:3
8,15:5
8,17:9
8,18:6
8,19:2
8,22:2
8,23:5
8,24:8
8,25:1
8,26:8
8,27:2
8,28:7
8,29:8
8,30:10
8,31:7
8,32:6
8,33:11
8,34:13
8,35:11
8,36:6
8,37:11
8,38:1
8,39:11
8,40:11
8,41:5
8,42:5
8,43:5
8,44:2
9,2:7
9,3:10
9,4:14
9,5:9
9,6:10
9,7:3
9,8:4
9,10:12
9,11:3
9,16:4
9,18:2
9,19:6
9,22:6
9,23:9
9,24:12
9,27:2
9,28:3
9,30:14
9,32:2
9,33:7
9,34:9
9,35:7
10,1:12
10,2:19
10,3:22
10,5:21
10,6:22
10,7:9
10,8:8
10,9:12
10,11:15
10,12:12
10,13:17
10,14:11
10,15:3
10,16:8
10,17:17
10,18:14
10,19:6
10,20:8
10,21:8
10,22:6
10,23:3
10,25:9
10,27:10
10,28:15
10,30:2
10,31:15
10,32:14
10,33:19
10,34:21
10,35:19
10,36:14
10,37:19
10,38:9
10,39:19
10,40:19
10,41:3
10,42:3
10,43:3
10,44:10
10,45:18
10,46:7
10,47:7
10,48:7
10,49:9
10,50:2
10,51:2
10,52:2
10,53:3
10,54:14
10,55:1
10,56:14
10,57:1
10,58:1
11,2:4
11,3:7
11,4:17
11,5:6
11,6:7
11,7:6
11,8:7
11,10:15
11,12:3
11,13:2
11,14:4
11,15:12
11,16:7
11,18:1
11,19:9
11,22:9
11,23:12
11,24:15
11,27:5
11,30:17
11,32:1
11,33:4
11,34:6
11,35:4
12,2:7
12,3:10
12,4:14
12,5:9
12,6:10
12,7:3
12,8:4
12,10:12
12,11:3
12,13:5
12,14:1
12,15:9
12,16:4
12,17:5
12,18:2
12,19:6
12,22:6
12,23:9
12,24:12
12,27:2
12,28:3
12,30:14
12,32:2
12,33:7
12,34:9
12,35:7
13,2:2
13,3:5
13,4:19
13,5:4
13,6:5
13,7:8
13,8:9
13,10:17
13,12:5
13,14:6
13,15:14
13,16:9
13,18:3
13,19:11
13,22:11
13,23:14
13,24:17
13,27:7
13,28:2
13,30:19
13,32:3
13,33:2
13,34:4
13,35:2
14,2:8
14,3:11
14,4:13
14,5:10
14,6:11
14,7:2
14,8:3
14,10:11
14,12:1
14,13:6
14,15:8
14,16:3
14,17:6
14,18:3
14,19:5
14,22:5
14,23:8
14,24:11
14,27:1
14,28:4
14,30:13
14,32:3
14,33:8
14,34:10
14,35:8
15,2:16
15,3:19
15,4:5
15,5:18
15,6:19
15,7:6
15,8:5
15,10:3
15,12:9
15,13:14
15,14:8
15,16:5
15,17:14
15,18:11
15,19:3
15,22:3
15,24:3
15,27:7
15,28:12
15,30:5
15,32:11
15,33:16
15,34:18
15,35:16
16,1:4
16,2:11
16,3:14
16,4:10
16,5:13
16,6:14
16,7:1
16,9:4
16,10:8
16,11:7
16,12:4
16,13:9
16,14:3
16,15:5
16,17:9
16,18:6
16,22:2
16,24:8
16,25:1
16,26:8
16,27:2
16,28:7
16,29:8
16,30:10
16,32:6
16,33:11
16,34:13
16,35:11
16,44:2
17,2:2
17,3:5
17,4:19
17,5:4
17,6:5
17,7:8
17,8:9
17,10:17
17,16:9
17,18:3
17,19:11
17,20:9
17,22:11
17,23:14
17,24:17
17,27:7
17,28:2
17,30:19
17,32:3
17,33:2
17,34:4
17,35:2
18,1:2
18,2:5
18,3:8
18,4:16
18,5:7
18,6:8
18,7:5
18,8:6
18,9:2
18,10:14
18,11:1
18,12:2
18,13:3
18,14:3
18,15:11
18,17:3
18,19:8
18,20:6
18,21:6
18,22:8
18,24:14
18,25:5
18,26:14
18,27:4
18,28:1
18,29:14
18,30:16
18,33:5
18,34:7
18,35:5
18,44:4
19,1:6
19,2:13
19,3:16
19,4:8
19,5:15
19,6:16
19,7:3
19,8:2
19,9:6
19,10:6
19,11:9
19,12:6
19,13:11
19,14:5
19,15:3
19,17:11
19,20:2
19,21:2
19,23:3
19,24:6
19,25:3
19,26:6
19,27:4
19,28:9
19,29:6
19,30:8
19,32:8
19,33:13
19,34:15
19,35:13
19,44:4
20,2:11
20,3:14
20,4:10
20,5:13
20,6:14
20,7:1
20,10:8
20,18:6
20,19:2
20,22:2
20,23:5
20,24:8
20,25:1
20,27:2
20,28:7
20,30:10
20,32:6
20,33:11
20,34:13
20,35:11
21,2:11
21,4:10
21,5:13
21,6:14
21,7:1
21,10:8
21,18:6
21,19:2
21,22:2
21,23:5
21,24:8
21,25:1
21,26:8
21,27:2
21,28:7
21,30:10
21,32:6
21,33:11
21,34:13
21,35:11
21,44:2
22,1:6
22,2:13
22,4:8
22,5:15
22,6:16
22,7:3
22,8:2
22,9:6
22,10:6
22,11:9
22,12:6
22,13:11
22,14:5
22,15:3
22,16:2
22,17:11
22,18:8
22,20:2
22,21:2
22,23:3
22,24:6
22,25:3
22,26:6
22,27:4
22,28:9
22,29:6
22,31:9
22,32:8
22,33:13
22,35:13
22,44:4
23,1:9
23,2:16
23,3:19
23,4:5
23,5:18
23,7:6
23,8:5
23,9:9
23,10:3
23,11:12
23,12:9
23,13:14
23,14:8
23,17:14
23,20:5
23,21:5
23,22:3
23,24:3
23,25:6
23,26:3
23,27:7
23,28:12
23,29:3
23,30:5
23,31:12
23,32:11
23,33:16
23,34:18
23,35:16
23,44:7
24,1:12
24,2:19
24,3:22
24,4:2
24,5:21
24,7:9
24,8:8
24,9:12
24,11:15
24,12:12
24,13:17
24,14:11
24,15:3
24,16:8
24,17:17
24,18:14
24,19:6
24,20:8
24,21:8
24,22:6
24,23:3
24,25:9
24,27:10
24,28:15
24,30:2
24,31:15
24,32:14
24,33:19
24,34:21
24,35:19
24,44:10
25,3:13
25,4:11
25,5:12
25,6:13
25,8:1
25,10:9
25,16:1
25,18:5
25,19:3
25,21:1
25,22:3
25,23:6
25,24:9
25,26:9
25,27:1
25,28:6
25,29:9
25,30:11
25,31:6
25,32:5
25,33:10
25,34:12
25,35:10
25,36:5
25,37:10
25,39:10
25,40:10
25,41:6
25,42:6
25,43:6
25,44:1
25,45:9
25,46:2
25,47:2
25,48:2
25,50:7
25,51:7
26,2:19
26,4:2
26,5:21
26,6:22
26,7:9
26,8:8
26,16:8
26,18:14
26,19:6
26,22:6
26,23:3
26,25:9
26,27:10
26,28:15
26,30:2
26,32:14
26,33:19
26,34:21
26,35:19
26,44:10
27,1:2
27,2:9
27,4:12
27,5:11
27,6:12
27,7:1
27,8:2
27,9:2
27,10:10
27,11:5
27,12:2
27,13:7
27,14:1
27,15:7
27,16:2
27,17:7
27,18:4
27,19:4
27,20:2
27,21:2
27,23:7
27,24:10
27,25:1
27,26:10
27,28:5
27,29:10
27,30:12
27,31:5
27,32:4
27,33:9
27,35:9
28,1:3
28,2:4
28,3:7
28,4:17
28,5:6
28,6:7
28,7:6
28,8:7
28,9:3
28,10:15
28,12:3
28,13:2
28,14:4
28,15:12
28,16:7
28,17:2
28,18:1
28,19:9
28,20:7
28,21:7
28,22:9
28,23:12
28,24:15
28,25:6
28,26:15
28,27:5
28,29:15
28,30:17
28,32:1
28,33:4
28,34:6
28,36:1
28,37:4
28,38:6
28,39:4
28,40:4
28,41:12
28,42:12
28,44:5
29,2:19
29,4:2
29,5:21
29,6:22
29,7:9
29,8:8
29,16:8
29,18:14
29,19:6
29,22:6
29,23:3
29,25:9
29,27:10
29,28:15
29,30:2
29,31:15
29,32:14
29,33:19
29,34:21
29,35:19
29,44:10
30,1:14
30,2:21
30,5:23
30,6:24
30,7:11
30,8:10
30,9:14
30,10:2
30,11:17
30,12:14
30,13:19
30,14:13
30,15:5
30,16:10
30,17:19
30,18:16
30,19:8
30,20:10
30,21:10
30,23:5
30,24:2
30,25:11
30,26:2
30,28:17
30,29:2
30,31:17
30,32:16
30,33:21
30,34:23
30,35:21
30,44:12
31,2:4
31,4:17
31,5:6
31,7:6
31,8:7
31,10:15
31,22:9
31,25:6
31,27:5
31,30:17
31,32:1
31,33:4
31,34:6
31,35:4
31,36:1
31,44:5
32,1:2
32,2:5
32,3:8
32,4:16
32,5:7
32,6:8
32,7:5
32,8:6
32,9:2
32,10:14
32,11:1
32,12:2
32,13:3
32,14:3
32,15:11
32,16:6
32,17:3
32,19:8
32,20:6
32,21:6
32,22:8
32,23:11
32,24:14
32,25:5
32,26:14
32,27:4
32,29:14
32,30:16
32,31:1
32,33:5
32,34:7
32,35:5
32,37:5
32,38:5
32,39:5
32,40:5
32,41:11
32,42:11
32,43:11
32,44:4
32,45:4
33,1:7
33,3:3
33,4:21
33,5:2
33,6:3
33,7:10
33,8:11
33,9:7
33,10:19
33,11:4
33,12:7
33,13:2
33,14:8
33,15:16
33,16:11
33,17:2
33,18:5
33,19:13
33,20:11
33,21:11
33,22:13
33,23:16
33,24:19
33,25:10
33,26:19
33,27:9
33,29:19
33,30:21
33,31:4
33,32:5
33,34:2
33,36:5
33,38:10
33,41:16
33,42:16
33,44:9
34,1:9
34,2:2
34,4:23
34,6:1
34,7:12
34,8:13
34,9:9
34,10:21
34,11:6
34,12:9
34,13:4
34,14:10
34,15:18
34,16:13
34,17:4
34,18:7
34,19:15
34,20:13
34,21:13
34,23:18
34,24:21
34,25:12
34,26:21
34,28:6
34,29:21
34,31:6
34,32:7
34,33:2
34,35:2
34,36:7
34,44:11
35,1:7
35,3:3
35,4:21
35,5:2
35,6:3
35,7:10
35,8:11
35,9:7
35,10:19
35,11:4
35,12:7
35,13:2
35,14:8
35,15:16
35,16:11
35,17:2
35,18:5
35,19:13
35,20:11
35,21:11
35,22:13
35,23:16
35,24:19
35,25:10
35,26:19
35,27:9
35,29:19
35,30:21
35,31:4
35,32:5
35,34:2
35,36:5
35,38:10
35,41:16
35,42:16
35,43:16
35,44:9
36,2:5
36,4:16
36,7:5
36,8:6
36,10:14
36,25:5
36,28:1
36,33:5
36,35:5
36,37:5
36,38:5
36,44:4
37,4:21
37,7:10
37,8:11
37,10:19
37,25:10
37,28:4
37,32:5
37,38:10
37,41:16
37,44:9
38,4:11
38,8:1
38,10:9
38,28:6
38,32:5
38,33:10
38,35:10
38,37:10
38,39:10
38,40:10
38,41:6
38,42:6
38,43:6
38,44:1
38,45:9
38,46:2
38,47:2
38,48:2
38,50:7
38,51:7
38,52:7
39,4:21
39,7:10
39,8:11
39,10:19
39,25:10
39,28:4
39,32:5
39,38:10
39,41:16
39,42:16
39,43:16
39,44:9
40,4:21
40,7:10
40,8:11
40,10:19
40,25:10
40,28:4
40,32:5
40,38:10
40,41:16
40,42:16
40,43:16
40,44:9
41,2:16
41,4:5
41,7:6
41,8:5
41,10:3
41,25:6
41,28:12
41,32:11
41,33:16
41,35:16
41,38:6
41,39:16
41,40:16
41,44:7
42,2:16
42,4:5
42,7:6
42,8:5
42,10:3
42,25:6
42,28:12
42,32:11
42,33:16
42,35:16
42,38:6
42,39:16
42,40:16
42,44:7
43,2:16
43,4:5
43,8:5
43,10:3
43,25:6
43,32:11
43,38:6
43,44:7
43,45:15
44,2:9
44,4:12
44,5:11
44,6:12
44,7:1
44,10:10
44,16:2
44,18:4
44,19:4
44,22:4
44,23:7
44,24:10
44,25:1
44,26:10
44,28:5
44,29:10
44,30:12
44,31:5
44,32:4
44,33:9
44,34:11
44,35:9
44,36:4
44,37:9
44,38:1
44,39:9
44,40:9
44,41:7
44,42:7
44,43:7
44,45:8
45,2:1
45,4:20
45,10:18
45,25:9
45,38:9
45,46:11
45,48:11
45,49:9
46,2:12
46,4:9
46,10:7
46,25:2
46,38:2
46,49:2
46,50:5
47,2:12
47,4:9
47,10:7
47,25:2
47,38:2
47,49:2
47,50:5
47,51:5
48,2:12
48,4:9
48,10:7
48,25:2
48,38:2
48,49:2
48,50:5
48,51:5
48,52:5
48,53:10
48,54:7
48,55:8
48,56:7
49,2:10
49,4:11
49,10:9
49,46:2
49,47:2
49,48:2
49,50:7
49,51:7
49,52:7
49,53:12
49,54:5
49,55:10
49,56:5
49,57:10
49,58:10
50,2:17
50,4:4
50,10:2
50,25:7
50,38:7
50,47:5
50,48:5
50,49:7
50,53:5
50,54:12
50,55:3
50,56:12
50,57:3
50,58:3
51,2:17
51,4:4
51,10:2
51,25:7
51,38:7
51,48:5
51,49:7
52,4:4
52,10:2
52,48:5
52,49:7
52,53:5
53,4:1
53,10:3
53,48:10
53,49:12
53,50:5
53,54:17
54,4:16
54,10:14
54,48:7
54,49:5
54,50:12
54,55:15
55,4:1
55,10:1
55,49:10
55,50:3
55,56:15
56,4:16
56,10:14
56,48:7
56,49:5
56,50:12
56,55:15
56,57:15
57,4:1
57,10:1
57,49:10
57,50:3
58,4:1
58,10:1

<setup times backward>
1,4:14
1,7:3
1,8:4
1,10:12
1,16:4
1,19:6
1,22:6
1,23:9
1,24:12
1,27:2
1,30:14
2,1:7
2,4:21
2,7:10
2,8:11
2,9:7
2,10:19
2,11:4
2,12:7
2,13:2
2,14:8
2,15:16
2,16:11
2,17:2
2,18:5
2,19:13
2,20:11
2,21:11
2,22:13
2,23:16
2,24:19
2,26:19
2,27:9
2,28:4
2,29:19
2,30:21
2,31:4
2,32:5
2,36:5
2,41:16
2,42:16
2,43:16
2,44:9
2,45:1
2,46:12
2,47:12
2,48:12
2,49:10
2,50:17
2,51:17
3,1:10
3,2:3
3,4:24
3,5:1
3,7:13
3,8:14
3,9:10
3,10:22
3,11:7
3,12:10
3,13:5
3,14:11
3,15:19
3,16:14
3,17:5
3,18:8
3,19:16
3,20:14
3,23:19
3,24:22
3,25:13
3,28:7
3,32:8
3,33:3
3,35:3
4,53:1
5,1:9
5,2:2
5,4:23
5,7:12
5,8:13
5,9:9
5,10:21
5,11:6
5,12:9
5,13:4
5,14:10
5,15:18
5,16:13
5,17:4
5,18:7
5,19:15
5,20:13
5,21:13
5,22:15
5,23:18
5,24:21
5,25:12
5,26:21
5,27:11
5,28:6
5,29:21
5,30:23
5,31:6
5,32:7
5,33:2
5,35:2
5,44:11
6,1:10
6,2:3
6,4:24
6,5:1
6,7:13
6,8:14
6,9:10
6,10:22
6,11:7
6,12:10
6,13:5
6,14:11
6,15:19
6,16:14
6,17:5
6,18:8
6,19:16
6,20:14
6,21:14
6,22:16
6,25:13
6,26:22
6,27:12
6,28:7
6,29:22
6,30:24
6,32:8
6,33:3
6,34:1
6,35:3
6,44:12
7,4:11
7,8:1
7,10:9
7,15:6
7,16:1
7,19:3
7,20:1
7,21:1
7,22:3
7,23:6
7,24:9
7,26:9
7,29:9
7,30:11
7,41:6
7,42:6
8,4:10
8,10:8
8,15:5
8,19:2
8,22:2
8,23:5
8,24:8
8,26:8
8,29:8
8,30:10
8,41:5
8,42:5
8,43:5
9,4:14
9,7:3
9,8:4
9,10:12
9,16:4
9,19:6
9,22:6
9,23:9
9,24:12
9,27:2
9,30:14
10,4:2
10,30:2
10,53:3
10,55:1
10,57:1
10,58:1
11,1:3
11,4:17
11,7:6
11,8:7
11,9:3
11,10:15
11,12:3
11,16:7
11,18:1
11,19:9
11,22:9
11,23:12
11,24:15
11,27:5
11,30:17
11,32:1
12,4:14
12,7:3
12,8:4
12,10:12
12,14:1
12,15:9
12,16:4
12,19:6
12,22:6
12,23:9
12,24:12
12,27:2
12,30:14
13,1:5
13,4:19
13,7:8
13,8:9
13,9:5
13,10:17
13,11:2
13,12:5
13,14:6
13,15:14
13,16:9
13,18:3
13,19:11
13,22:11
13,23:14
13,24:17
13,27:7
13,28:2
13,30:19
13,32:3
14,4:13
14,7:2
14,8:3
14,10:11
14,15:8
14,16:3
14,19:5
14,22:5
14,23:8
14,24:11
14,27:1
14,30:13
15,4:5
15,10:3
15,24:3
15,30:5
16,4:10
16,10:8
16,15:5
16,22:2
16,24:8
16,26:8
16,29:8
16,30:10
17,1:5
17,4:19
17,7:8
17,8:9
17,9:5
17,10:17
17,11:2
17,12:5
17,14:6
17,15:14
17,16:9
17,18:3
17,19:11
17,22:11
17,23:14
17,24:17
17,27:7
17,28:2
17,30:19
17,32:3
18,1:2
18,4:16
18,7:5
18,8:6
18,9:2
18,10:14
18,12:2
18,14:3
18,15:11
18,16:6
18,20:6
18,21:6
18,22:8
18,24:14
18,25:5
18,26:14
18,27:4
18,29:14
18,30:16
18,44:4
19,4:8
19,10:6
19,15:3
19,24:6
19,26:6
19,29:6
19,30:8
20,4:10
20,10:8
20,15:5
20,19:2
20,22:2
20,23:5
20,24:8
20,30:10
21,4:10
21,10:8
21,15:5
21,19:2
21,22:2
21,23:5
21,24:8
21,30:10
22,4:8
22,10:6
22,15:3
22,23:3
22,24:6
22,26:6
22,29:6
23,4:5
23,10:3
23,24:3
23,26:3
23,29:3
23,30:5
24,4:2
24,30:2
25,4:11
25,8:1
25,10:9
25,15:6
25,16:1
25,19:3
25,20:1
25,21:1
25,22:3
25,23:6
25,24:9
25,26:9
25,29:9
25,30:11
25,41:6
25,42:6
25,43:6
25,46:2
25,47:2
25,48:2
25,50:7
25,51:7
26,4:2
26,30:2
27,4:12
27,7:1
27,8:2
27,10:10
27,15:7
27,16:2
27,19:4
27,20:2
27,21:2
27,22:4
27,23:7
27,24:10
27,25:1
27,26:10
27,29:10
28,1:3
28,4:17
28,7:6
28,8:7
28,9:3
28,10:15
28,12:3
28,14:4
28,15:12
28,16:7
28,18:1
28,19:9
28,20:7
28,21:7
28,22:9
28,23:12
28,24:15
28,25:6
28,26:15
28,27:5
28,29:15
28,30:17
28,36:1
28,38:6
28,41:12
28,42:12
28,44:5
29,4:2
29,30:2
31,1:3
31,4:17
31,7:6
31,8:7
31,9:3
31,10:15
31,12:3
31,14:4
31,15:12
31,16:7
31,18:1
31,19:9
31,20:7
31,21:7
31,22:9
31,23:12
31,24:15
31,25:6
31,26:15
31,27:5
31,29:15
31,30:17
31,32:1
31,44:5
32,1:2
32,4:16
32,7:5
32,8:6
32,9:2
32,10:14
32,12:2
32,14:3
32,15:11
32,16:6
32,19:8
32,20:6
32,21:6
32,22:8
32,23:11
32,24:14
32,25:5
32,26:14
32,27:4
32,29:14
32,30:16
32,38:5
32,41:11
32,42:11
32,43:11
32,44:4
33,1:7
33,4:21
33,7:10
33,8:11
33,9:7
33,10:19
33,11:4
33,12:7
33,13:2
33,14:8
33,15:16
33,16:11
33,17:2
33,18:5
33,19:13
33,20:11
33,21:11
33,22:13
33,23:16
33,24:19
33,25:10
33,26:19
33,27:9
33,28:4
33,29:19
33,30:21
33,31:4
33,32:5
33,36:5
33,38:10
33,41:16
33,42:16
33,44:9
34,1:9
34,2:2
34,4:23
34,7:12
34,8:13
34,9:9
34,10:21
34,11:6
34,12:9
34,13:4
34,14:10
34,15:18
34,16:13
34,17:4
34,18:7
34,19:15
34,20:13
34,21:13
34,22:15
34,23:18
34,24:21
34,25:12
34,26:21
34,27:11
34,28:6
34,29:21
34,30:23
34,31:6
34,32:7
34,33:2
34,35:2
34,44:11
35,1:7
35,4:21
35,7:10
35,8:11
35,9:7
35,10:19
35,11:4
35,12:7
35,13:2
35,14:8
35,15:16
35,16:11
35,17:2
35,18:5
35,19:13
35,20:11
35,21:11
35,22:13
35,23:16
35,24:19
35,25:10
35,26:19
35,27:9
35,28:4
35,29:19
35,30:21
35,31:4
35,32:5
35,36:5
35,38:10
35,41:16
35,42:16
35,44:9
36,1:2
36,4:16
36,7:5
36,8:6
36,9:2
36,10:14
36,12:2
36,14:3
36,15:11
36,16:6
36,19:8
36,20:6
36,21:6
36,22:8
36,23:11
36,24:14
36,25:5
36,26:14
36,27:4
36,29:14
36,30:16
36,44:4
37,1:7
37,4:21
37,7:10
37,8:11
37,9:7
37,10:19
37,11:4
37,12:7
37,13:2
37,14:8
37,15:16
37,16:11
37,17:2
37,18:5
37,19:13
37,20:11
37,21:11
37,22:13
37,23:16
37,24:19
37,25:10
37,26:19
37,27:9
37,28:4
37,29:19
37,30:21
37,31:4
37,32:5
37,36:5
37,38:10
37,44:9
38,4:11
38,8:1
38,10:9
38,15:6
38,16:1
38,19:3
38,20:1
38,21:1
38,22:3
38,23:6
38,24:9
38,26:9
38,29:9
38,30:11
38,41:6
38,42:6
38,43:6
38,46:2
38,47:2
38,48:2
38,50:7
38,51:7
39,1:7
39,4:21
39,7:10
39,8:11
39,9:7
39,10:19
39,11:4
39,12:7
39,13:2
39,14:8
39,15:16
39,16:11
39,17:2
39,18:5
39,19:13
39,20:11
39,21:11
39,22:13
39,23:16
39,24:19
39,25:10
39,26:19
39,27:9
39,28:4
39,29:19
39,30:21
39,31:4
39,32:5
39,36:5
39,38:10
39,41:16
39,42:16
39,44:9
40,1:7
40,4:21
40,7:10
40,8:11
40,9:7
40,10:19
40,11:4
40,12:7
40,13:2
40,14:8
40,15:16
40,16:11
40,17:2
40,18:5
40,19:13
40,20:11
40,21:11
40,22:13
40,23:16
40,24:19
40,25:10
40,26:19
40,27:9
40,28:4
40,29:19
40,30:21
40,31:4
40,32:5
40,36:5
40,38:10
40,41:16
40,42:16
40,44:9
41,4:5
41,10:3
41,24:3
41,26:3
41,29:3
41,30:5
42,4:5
42,10:3
42,24:3
42,26:3
42,29:3
42,30:5
43,4:5
43,10:3
43,24:3
43,26:3
43,29:3
43,30:5
44,4:12
44,7:1
44,8:2
44,10:10
44,15:7
44,16:2
44,19:4
44,20:2
44,21:2
44,22:4
44,23:7
44,24:10
44,25:1
44,26:10
44,29:10
44,30:12
44,38:1
44,41:7
44,42:7
44,43:7
45,1:6
45,4:20
45,7:9
45,8:10
45,9:6
45,10:18
45,11:3
45,12:6
45,13:1
45,14:7
45,15:15
45,16:10
45,17:1
45,18:4
45,19:12
45,20:10
45,21:10
45,22:12
45,23:15
45,24:18
45,25:9
45,26:18
45,27:8
45,28:3
45,29:18
45,30:20
45,31:3
45,32:4
45,36:4
45,38:9
45,41:15
45,42:15
45,43:15
45,44:8
46,4:9
46,10:7
46,15:4
46,19:1
46,22:1
46,23:4
46,24:7
46,26:7
46,29:7
46,30:9
46,41:4
46,42:4
46,43:4
47,4:9
47,10:7
47,15:4
47,19:1
47,22:1
47,23:4
47,24:7
47,26:7
47,29:7
47,30:9
47,41:4
47,42:4
47,43:4
47,50:5
48,4:9
48,10:7
48,15:4
48,19:1
48,22:1
48,23:4
48,24:7
48,26:7
48,29:7
48,30:9
48,41:4
48,42:4
48,43:4
48,50:5
48,51:5
48,52:5
48,53:10
49,4:11
49,8:1
49,10:9
49,15:6
49,16:1
49,19:3
49,20:1
49,21:1
49,22:3
49,23:6
49,24:9
49,26:9
49,29:9
49,30:11
49,41:6
49,42:6
49,43:6
49,46:2
49,47:2
49,48:2
49,50:7
49,51:7
49,52:7
49,53:12
49,55:10
49,57:10
50,4:4
50,10:2
50,24:2
50,26:2
50,29:2
50,30:4
50,53:5
50,55:3
50,57:3
51,4:4
51,10:2
51,24:2
51,26:2
51,29:2
51,30:4
52,4:4
52,10:2
52,24:2
52,26:2
52,29:2
52,30:4
54,1:2
54,4:16
54,7:5
54,8:6
54,9:2
54,10:14
54,12:2
54,14:3
54,15:11
54,16:6
54,19:8
54,20:6
54,21:6
54,22:8
54,23:11
54,24:14
54,25:5
54,26:14
54,27:4
54,29:14
54,30:16
54,38:5
54,41:11
54,42:11
54,43:11
54,44:4
54,46:7
54,47:7
54,48:7
54,49:5
54,50:12
54,51:12
54,52:12
54,53:17
55,4:1
55,30:1
55,53:2
56,1:2
56,4:16
56,7:5
56,8:6
56,9:2
56,10:14
56,12:2
56,14:3
56,15:11
56,16:6
56,19:8
56,20:6
56,21:6
56,22:8
56,23:11
56,24:14
56,25:5
56,26:14
56,27:4
56,29:14
56,30:16
56,38:5
56,41:11
56,42:11
56,43:11
56,44:4
56,46:7
56,47:7
56,48:7
56,49:5
56,50:12
56,51:12
56,52:12
56,53:17
56,55:15
57,4:1
57,30:1
57,53:2
58,4:1
58,30:1
58,53:2

<end>

<optimal SALBP-1 value>
29


<rand seed>
467321153

<Lower Bounds>
Lm1=27
Lms1=27
Lm2=25
Lm3=24
Lm4=27
Best=27

<Optimal Stations (Iterations: 10)>
38
